% Auto-generated by scripts/generate_dzn.py
% problem_type   = regex
% instance       = regex_77
% source_json    = instances_json/2_high_blowup/regex_77.json
% blowup         = 53.266666666666666
% representation = DFA

mode = 0;

var_count = 29;
Q = 799;
S = 2;
q0 = 1;
F = {495, 496, 497, 498, 499, 500, 501, 502, 503, 504, 505, 506, 507, 508, 509, 510, 511, 512, 513, 514, 515, 516, 517, 518, 519, 520, 521, 522, 523, 524, 525, 526, 527, 528, 529, 530, 531, 532, 533, 534, 535, 536, 537, 538, 539, 540, 541, 542, 543, 544, 545, 546, 547, 548, 549, 550, 551, 552, 553, 554, 555, 556, 557, 558, 559, 560, 561, 562, 563, 564, 565, 566, 567, 568, 569, 570, 571, 572, 573, 574, 575, 576, 577, 578, 579, 580, 581, 582, 583, 584, 585, 586, 587, 588, 589, 590, 591, 592, 593, 594, 595, 596, 597, 598, 599, 600, 601, 602, 603, 604, 605, 606, 607, 608, 609, 610, 611, 612, 613, 614, 615, 616, 617, 618, 619, 620, 621, 622, 623, 624, 625, 626, 627, 628, 629, 630, 631, 632, 633, 634, 635, 636, 637, 638, 639, 640, 641, 642, 643, 644, 645, 646, 647, 648, 649, 650, 651, 652, 653, 654, 655, 656, 657, 658, 659, 660, 661, 662, 663, 664, 665, 666, 667, 668, 669, 670, 671, 672, 673, 674, 675, 676, 677, 678, 679, 680, 681, 682, 683, 684, 685, 686, 687, 688, 689, 690, 691, 692, 693, 694, 695, 696, 697, 698, 699, 700, 701, 702, 703, 704, 705, 706, 707, 708, 709, 710, 711, 712, 713, 714, 715, 716, 717, 718, 719, 720, 721, 722, 723, 724, 725, 726, 727, 728, 729, 730, 731, 732, 733, 734, 735, 736, 737, 738, 739, 740, 741, 742, 743, 744, 745, 746, 747, 748, 749, 750, 751, 752, 753, 754, 755, 756, 757, 758, 759, 760, 761, 762, 763, 764, 765, 766, 767, 768, 769, 770, 771, 772, 773, 774, 775, 776, 777, 778, 779, 780, 781, 782, 783, 784, 785, 786, 787, 788, 789, 790, 791, 792, 793, 794, 795, 796, 797, 798, 799};
d_dfa = array2d(1..799, 1..2, [
  2, 1,
  3, 1,
  4, 1,
  6, 5,
  8, 7,
  10, 9,
  12, 11,
  13, 11,
  15, 14,
  17, 16,
  19, 18,
  20, 18,
  21, 18,
  23, 22,
  24, 22,
  26, 25,
  28, 27,
  30, 29,
  31, 29,
  32, 29,
  34, 33,
  36, 35,
  37, 35,
  38, 35,
  40, 39,
  41, 39,
  43, 42,
  45, 44,
  47, 46,
  48, 46,
  49, 46,
  51, 50,
  53, 52,
  55, 54,
  57, 56,
  58, 56,
  59, 56,
  61, 60,
  63, 62,
  64, 62,
  65, 62,
  67, 66,
  68, 66,
  70, 69,
  72, 71,
  74, 73,
  75, 73,
  76, 73,
  78, 77,
  80, 79,
  82, 81,
  84, 83,
  85, 83,
  87, 86,
  89, 88,
  91, 90,
  92, 90,
  93, 90,
  95, 94,
  97, 96,
  99, 98,
  101, 100,
  102, 100,
  103, 100,
  105, 104,
  107, 106,
  108, 106,
  109, 106,
  111, 110,
  112, 110,
  114, 113,
  116, 115,
  118, 117,
  119, 117,
  120, 117,
  122, 121,
  124, 123,
  126, 125,
  128, 127,
  129, 127,
  131, 130,
  133, 132,
  135, 134,
  136, 134,
  137, 134,
  139, 138,
  140, 138,
  142, 141,
  144, 143,
  146, 145,
  147, 145,
  148, 145,
  150, 149,
  152, 151,
  154, 153,
  156, 155,
  157, 155,
  159, 158,
  161, 160,
  163, 162,
  164, 162,
  165, 162,
  167, 166,
  169, 168,
  171, 170,
  173, 172,
  174, 172,
  175, 172,
  177, 176,
  179, 178,
  180, 178,
  181, 178,
  183, 182,
  184, 182,
  186, 185,
  188, 187,
  190, 189,
  191, 189,
  192, 189,
  194, 193,
  196, 195,
  198, 197,
  200, 199,
  201, 199,
  203, 202,
  205, 204,
  207, 206,
  208, 206,
  209, 206,
  211, 210,
  212, 210,
  214, 213,
  216, 215,
  218, 217,
  219, 217,
  220, 217,
  222, 221,
  224, 223,
  225, 223,
  226, 223,
  228, 227,
  229, 227,
  231, 230,
  233, 232,
  235, 234,
  236, 234,
  237, 234,
  239, 238,
  241, 240,
  243, 242,
  245, 244,
  246, 244,
  248, 247,
  250, 249,
  252, 251,
  253, 251,
  254, 251,
  256, 255,
  257, 255,
  259, 258,
  261, 260,
  263, 262,
  264, 262,
  265, 262,
  267, 266,
  269, 268,
  271, 270,
  273, 272,
  274, 272,
  276, 275,
  278, 277,
  280, 279,
  281, 279,
  282, 279,
  284, 283,
  286, 285,
  288, 287,
  290, 289,
  291, 289,
  292, 289,
  294, 293,
  296, 295,
  297, 295,
  298, 295,
  300, 299,
  301, 299,
  303, 302,
  305, 304,
  307, 306,
  308, 306,
  309, 306,
  311, 310,
  313, 312,
  315, 314,
  317, 316,
  318, 316,
  320, 319,
  322, 321,
  324, 323,
  325, 323,
  326, 323,
  328, 327,
  329, 327,
  331, 330,
  333, 332,
  335, 334,
  336, 334,
  337, 334,
  339, 338,
  341, 340,
  342, 340,
  343, 340,
  345, 344,
  346, 344,
  348, 347,
  350, 349,
  352, 351,
  353, 351,
  354, 351,
  356, 355,
  358, 357,
  360, 359,
  362, 361,
  363, 361,
  364, 361,
  366, 365,
  368, 367,
  369, 367,
  370, 367,
  372, 371,
  373, 371,
  375, 374,
  377, 376,
  379, 378,
  380, 378,
  381, 378,
  383, 382,
  385, 384,
  387, 386,
  389, 388,
  390, 388,
  392, 391,
  394, 393,
  396, 395,
  397, 395,
  398, 395,
  400, 399,
  401, 399,
  403, 402,
  405, 404,
  407, 406,
  408, 406,
  409, 406,
  411, 410,
  413, 412,
  414, 412,
  415, 412,
  417, 416,
  418, 416,
  420, 419,
  422, 421,
  424, 423,
  425, 423,
  426, 423,
  428, 427,
  430, 429,
  432, 431,
  434, 433,
  435, 433,
  437, 436,
  439, 438,
  441, 440,
  442, 440,
  443, 440,
  445, 444,
  446, 444,
  448, 447,
  450, 449,
  452, 451,
  453, 451,
  454, 451,
  456, 455,
  458, 457,
  460, 459,
  462, 461,
  463, 461,
  465, 464,
  467, 466,
  469, 468,
  470, 468,
  471, 468,
  473, 472,
  475, 474,
  477, 476,
  479, 478,
  480, 478,
  481, 478,
  483, 482,
  485, 484,
  486, 484,
  487, 484,
  489, 488,
  490, 488,
  492, 491,
  494, 493,
  496, 495,
  497, 495,
  498, 495,
  500, 499,
  502, 501,
  504, 503,
  506, 505,
  507, 505,
  509, 508,
  511, 510,
  513, 512,
  514, 512,
  515, 512,
  517, 516,
  518, 516,
  520, 519,
  522, 521,
  524, 523,
  525, 523,
  526, 523,
  528, 527,
  530, 529,
  531, 529,
  532, 529,
  534, 533,
  535, 533,
  537, 536,
  539, 538,
  541, 540,
  542, 540,
  543, 540,
  545, 544,
  547, 546,
  549, 548,
  551, 550,
  552, 550,
  553, 550,
  555, 554,
  557, 556,
  558, 556,
  559, 556,
  561, 560,
  562, 560,
  564, 563,
  566, 565,
  568, 567,
  569, 567,
  570, 567,
  572, 571,
  574, 573,
  576, 575,
  578, 577,
  579, 577,
  581, 580,
  583, 582,
  585, 584,
  586, 584,
  587, 584,
  589, 588,
  591, 590,
  593, 592,
  595, 594,
  596, 594,
  597, 594,
  599, 598,
  601, 600,
  602, 600,
  603, 600,
  605, 604,
  606, 604,
  608, 607,
  610, 609,
  612, 611,
  613, 611,
  614, 611,
  616, 615,
  618, 617,
  620, 619,
  622, 621,
  623, 621,
  625, 624,
  627, 626,
  629, 628,
  630, 628,
  631, 628,
  633, 632,
  634, 632,
  636, 635,
  638, 637,
  640, 639,
  641, 639,
  642, 639,
  644, 643,
  646, 645,
  647, 645,
  648, 645,
  650, 649,
  651, 649,
  653, 652,
  655, 654,
  657, 656,
  658, 656,
  659, 656,
  661, 660,
  663, 662,
  665, 664,
  667, 666,
  668, 666,
  669, 666,
  671, 670,
  673, 672,
  674, 672,
  675, 672,
  677, 676,
  678, 676,
  680, 679,
  682, 681,
  684, 683,
  685, 683,
  686, 683,
  688, 687,
  690, 689,
  692, 691,
  694, 693,
  695, 693,
  697, 696,
  699, 698,
  701, 700,
  702, 700,
  703, 700,
  705, 704,
  706, 704,
  708, 707,
  710, 709,
  712, 711,
  713, 711,
  714, 711,
  716, 715,
  718, 717,
  719, 717,
  720, 717,
  722, 721,
  723, 721,
  725, 724,
  727, 726,
  729, 728,
  730, 728,
  731, 728,
  733, 732,
  735, 734,
  737, 736,
  739, 738,
  740, 738,
  742, 741,
  744, 743,
  746, 745,
  747, 745,
  748, 745,
  750, 749,
  751, 749,
  753, 752,
  755, 754,
  757, 756,
  758, 756,
  759, 756,
  761, 760,
  763, 762,
  765, 764,
  767, 766,
  768, 766,
  770, 769,
  772, 771,
  774, 773,
  775, 773,
  776, 773,
  778, 777,
  780, 779,
  782, 781,
  784, 783,
  785, 783,
  786, 783,
  788, 787,
  790, 789,
  791, 789,
  792, 789,
  794, 793,
  795, 793,
  797, 796,
  799, 798,
  2, 1,
  3, 1,
  4, 1,
  6, 5,
  8, 7,
  10, 9,
  12, 11,
  13, 11,
  15, 14,
  17, 16,
  19, 18,
  20, 18,
  21, 18,
  23, 22,
  24, 22,
  26, 25,
  28, 27,
  30, 29,
  31, 29,
  32, 29,
  34, 33,
  36, 35,
  37, 35,
  38, 35,
  40, 39,
  41, 39,
  43, 42,
  45, 44,
  47, 46,
  48, 46,
  49, 46,
  51, 50,
  53, 52,
  55, 54,
  57, 56,
  58, 56,
  59, 56,
  61, 60,
  63, 62,
  64, 62,
  65, 62,
  67, 66,
  68, 66,
  70, 69,
  72, 71,
  74, 73,
  75, 73,
  76, 73,
  78, 77,
  80, 79,
  82, 81,
  84, 83,
  85, 83,
  87, 86,
  89, 88,
  91, 90,
  92, 90,
  93, 90,
  95, 94,
  97, 96,
  99, 98,
  101, 100,
  102, 100,
  103, 100,
  105, 104,
  107, 106,
  108, 106,
  109, 106,
  111, 110,
  112, 110,
  114, 113,
  116, 115,
  118, 117,
  119, 117,
  120, 117,
  122, 121,
  124, 123,
  126, 125,
  128, 127,
  129, 127,
  131, 130,
  133, 132,
  135, 134,
  136, 134,
  137, 134,
  139, 138,
  140, 138,
  142, 141,
  144, 143,
  146, 145,
  147, 145,
  148, 145,
  150, 149,
  152, 151,
  154, 153,
  156, 155,
  157, 155,
  159, 158,
  161, 160,
  163, 162,
  164, 162,
  165, 162,
  167, 166,
  169, 168,
  171, 170,
  173, 172,
  174, 172,
  175, 172,
  177, 176,
  179, 178,
  180, 178,
  181, 178,
  183, 182,
  184, 182,
  186, 185,
  188, 187,
  496, 495,
  497, 495,
  498, 495,
  500, 499,
  502, 501,
  504, 503,
  506, 505,
  507, 505,
  509, 508,
  511, 510,
  513, 512,
  514, 512,
  515, 512,
  517, 516,
  518, 516,
  520, 519,
  522, 521,
  524, 523,
  525, 523,
  526, 523,
  528, 527,
  530, 529,
  531, 529,
  532, 529,
  534, 533,
  535, 533,
  537, 536,
  539, 538,
  541, 540,
  542, 540,
  543, 540,
  545, 544,
  547, 546,
  549, 548,
  551, 550,
  552, 550,
  553, 550,
  555, 554,
  557, 556,
  558, 556,
  559, 556,
  561, 560,
  562, 560,
  564, 563,
  566, 565,
  568, 567,
  569, 567,
  570, 567,
  572, 571,
  574, 573,
  576, 575,
  578, 577,
  579, 577,
  581, 580,
  583, 582,
  585, 584,
  586, 584,
  587, 584,
  589, 588,
  591, 590,
  593, 592,
  595, 594,
  596, 594,
  597, 594,
  599, 598,
  601, 600,
  602, 600,
  603, 600,
  605, 604,
  606, 604,
  608, 607,
  610, 609,
  612, 611,
  613, 611,
  614, 611,
  616, 615,
  618, 617,
  620, 619,
  622, 621,
  623, 621,
  625, 624,
  627, 626,
  629, 628,
  630, 628,
  631, 628,
  633, 632,
  634, 632,
  636, 635,
  638, 637,
  640, 639,
  641, 639,
  642, 639,
  644, 643,
  646, 645,
  647, 645,
  648, 645,
  650, 649,
  651, 649,
  653, 652,
  655, 654,
  657, 656,
  658, 656,
  659, 656,
  661, 660,
  663, 662,
  665, 664,
  667, 666,
  668, 666,
  669, 666,
  671, 670,
  673, 672,
  674, 672,
  675, 672,
  677, 676,
  678, 676,
  680, 679,
  682, 681,
  684, 683,
  685, 683,
  686, 683,
  688, 687,
  690, 689,
  692, 691,
  694, 693,
  695, 693,
  697, 696,
  699, 698,
  701, 700,
  702, 700,
  703, 700,
  705, 704,
  706, 704,
  708, 707,
  710, 709,
  712, 711,
  713, 711,
  714, 711,
  716, 715,
  718, 717,
  719, 717,
  720, 717,
  722, 721,
  723, 721,
  725, 724,
  727, 726,
  729, 728,
  730, 728,
  731, 728,
  733, 732,
  735, 734,
  737, 736,
  739, 738,
  740, 738,
  742, 741,
  744, 743,
  746, 745,
  747, 745,
  748, 745,
  750, 749,
  751, 749,
  753, 752,
  755, 754,
  757, 756,
  758, 756,
  759, 756,
  761, 760,
  763, 762,
  765, 764,
  767, 766,
  768, 766,
  770, 769,
  772, 771,
  774, 773,
  775, 773,
  776, 773,
  778, 777,
  780, 779,
  782, 781,
  784, 783,
  785, 783,
  786, 783,
  788, 787,
  790, 789,
  791, 789,
  792, 789,
  794, 793,
  795, 793,
  797, 796,
  799, 798
]);
d_nfa = array2d(1..799, 1..2, [
  {}, {},
  {}, {},
  {}, {},
  {}, {},
  {}, {},
  {}, {},
  {}, {},
  {}, {},
  {}, {},
  {}, {},
  {}, {},
  {}, {},
  {}, {},
  {}, {},
  {}, {},
  {}, {},
  {}, {},
  {}, {},
  {}, {},
  {}, {},
  {}, {},
  {}, {},
  {}, {},
  {}, {},
  {}, {},
  {}, {},
  {}, {},
  {}, {},
  {}, {},
  {}, {},
  {}, {},
  {}, {},
  {}, {},
  {}, {},
  {}, {},
  {}, {},
  {}, {},
  {}, {},
  {}, {},
  {}, {},
  {}, {},
  {}, {},
  {}, {},
  {}, {},
  {}, {},
  {}, {},
  {}, {},
  {}, {},
  {}, {},
  {}, {},
  {}, {},
  {}, {},
  {}, {},
  {}, {},
  {}, {},
  {}, {},
  {}, {},
  {}, {},
  {}, {},
  {}, {},
  {}, {},
  {}, {},
  {}, {},
  {}, {},
  {}, {},
  {}, {},
  {}, {},
  {}, {},
  {}, {},
  {}, {},
  {}, {},
  {}, {},
  {}, {},
  {}, {},
  {}, {},
  {}, {},
  {}, {},
  {}, {},
  {}, {},
  {}, {},
  {}, {},
  {}, {},
  {}, {},
  {}, {},
  {}, {},
  {}, {},
  {}, {},
  {}, {},
  {}, {},
  {}, {},
  {}, {},
  {}, {},
  {}, {},
  {}, {},
  {}, {},
  {}, {},
  {}, {},
  {}, {},
  {}, {},
  {}, {},
  {}, {},
  {}, {},
  {}, {},
  {}, {},
  {}, {},
  {}, {},
  {}, {},
  {}, {},
  {}, {},
  {}, {},
  {}, {},
  {}, {},
  {}, {},
  {}, {},
  {}, {},
  {}, {},
  {}, {},
  {}, {},
  {}, {},
  {}, {},
  {}, {},
  {}, {},
  {}, {},
  {}, {},
  {}, {},
  {}, {},
  {}, {},
  {}, {},
  {}, {},
  {}, {},
  {}, {},
  {}, {},
  {}, {},
  {}, {},
  {}, {},
  {}, {},
  {}, {},
  {}, {},
  {}, {},
  {}, {},
  {}, {},
  {}, {},
  {}, {},
  {}, {},
  {}, {},
  {}, {},
  {}, {},
  {}, {},
  {}, {},
  {}, {},
  {}, {},
  {}, {},
  {}, {},
  {}, {},
  {}, {},
  {}, {},
  {}, {},
  {}, {},
  {}, {},
  {}, {},
  {}, {},
  {}, {},
  {}, {},
  {}, {},
  {}, {},
  {}, {},
  {}, {},
  {}, {},
  {}, {},
  {}, {},
  {}, {},
  {}, {},
  {}, {},
  {}, {},
  {}, {},
  {}, {},
  {}, {},
  {}, {},
  {}, {},
  {}, {},
  {}, {},
  {}, {},
  {}, {},
  {}, {},
  {}, {},
  {}, {},
  {}, {},
  {}, {},
  {}, {},
  {}, {},
  {}, {},
  {}, {},
  {}, {},
  {}, {},
  {}, {},
  {}, {},
  {}, {},
  {}, {},
  {}, {},
  {}, {},
  {}, {},
  {}, {},
  {}, {},
  {}, {},
  {}, {},
  {}, {},
  {}, {},
  {}, {},
  {}, {},
  {}, {},
  {}, {},
  {}, {},
  {}, {},
  {}, {},
  {}, {},
  {}, {},
  {}, {},
  {}, {},
  {}, {},
  {}, {},
  {}, {},
  {}, {},
  {}, {},
  {}, {},
  {}, {},
  {}, {},
  {}, {},
  {}, {},
  {}, {},
  {}, {},
  {}, {},
  {}, {},
  {}, {},
  {}, {},
  {}, {},
  {}, {},
  {}, {},
  {}, {},
  {}, {},
  {}, {},
  {}, {},
  {}, {},
  {}, {},
  {}, {},
  {}, {},
  {}, {},
  {}, {},
  {}, {},
  {}, {},
  {}, {},
  {}, {},
  {}, {},
  {}, {},
  {}, {},
  {}, {},
  {}, {},
  {}, {},
  {}, {},
  {}, {},
  {}, {},
  {}, {},
  {}, {},
  {}, {},
  {}, {},
  {}, {},
  {}, {},
  {}, {},
  {}, {},
  {}, {},
  {}, {},
  {}, {},
  {}, {},
  {}, {},
  {}, {},
  {}, {},
  {}, {},
  {}, {},
  {}, {},
  {}, {},
  {}, {},
  {}, {},
  {}, {},
  {}, {},
  {}, {},
  {}, {},
  {}, {},
  {}, {},
  {}, {},
  {}, {},
  {}, {},
  {}, {},
  {}, {},
  {}, {},
  {}, {},
  {}, {},
  {}, {},
  {}, {},
  {}, {},
  {}, {},
  {}, {},
  {}, {},
  {}, {},
  {}, {},
  {}, {},
  {}, {},
  {}, {},
  {}, {},
  {}, {},
  {}, {},
  {}, {},
  {}, {},
  {}, {},
  {}, {},
  {}, {},
  {}, {},
  {}, {},
  {}, {},
  {}, {},
  {}, {},
  {}, {},
  {}, {},
  {}, {},
  {}, {},
  {}, {},
  {}, {},
  {}, {},
  {}, {},
  {}, {},
  {}, {},
  {}, {},
  {}, {},
  {}, {},
  {}, {},
  {}, {},
  {}, {},
  {}, {},
  {}, {},
  {}, {},
  {}, {},
  {}, {},
  {}, {},
  {}, {},
  {}, {},
  {}, {},
  {}, {},
  {}, {},
  {}, {},
  {}, {},
  {}, {},
  {}, {},
  {}, {},
  {}, {},
  {}, {},
  {}, {},
  {}, {},
  {}, {},
  {}, {},
  {}, {},
  {}, {},
  {}, {},
  {}, {},
  {}, {},
  {}, {},
  {}, {},
  {}, {},
  {}, {},
  {}, {},
  {}, {},
  {}, {},
  {}, {},
  {}, {},
  {}, {},
  {}, {},
  {}, {},
  {}, {},
  {}, {},
  {}, {},
  {}, {},
  {}, {},
  {}, {},
  {}, {},
  {}, {},
  {}, {},
  {}, {},
  {}, {},
  {}, {},
  {}, {},
  {}, {},
  {}, {},
  {}, {},
  {}, {},
  {}, {},
  {}, {},
  {}, {},
  {}, {},
  {}, {},
  {}, {},
  {}, {},
  {}, {},
  {}, {},
  {}, {},
  {}, {},
  {}, {},
  {}, {},
  {}, {},
  {}, {},
  {}, {},
  {}, {},
  {}, {},
  {}, {},
  {}, {},
  {}, {},
  {}, {},
  {}, {},
  {}, {},
  {}, {},
  {}, {},
  {}, {},
  {}, {},
  {}, {},
  {}, {},
  {}, {},
  {}, {},
  {}, {},
  {}, {},
  {}, {},
  {}, {},
  {}, {},
  {}, {},
  {}, {},
  {}, {},
  {}, {},
  {}, {},
  {}, {},
  {}, {},
  {}, {},
  {}, {},
  {}, {},
  {}, {},
  {}, {},
  {}, {},
  {}, {},
  {}, {},
  {}, {},
  {}, {},
  {}, {},
  {}, {},
  {}, {},
  {}, {},
  {}, {},
  {}, {},
  {}, {},
  {}, {},
  {}, {},
  {}, {},
  {}, {},
  {}, {},
  {}, {},
  {}, {},
  {}, {},
  {}, {},
  {}, {},
  {}, {},
  {}, {},
  {}, {},
  {}, {},
  {}, {},
  {}, {},
  {}, {},
  {}, {},
  {}, {},
  {}, {},
  {}, {},
  {}, {},
  {}, {},
  {}, {},
  {}, {},
  {}, {},
  {}, {},
  {}, {},
  {}, {},
  {}, {},
  {}, {},
  {}, {},
  {}, {},
  {}, {},
  {}, {},
  {}, {},
  {}, {},
  {}, {},
  {}, {},
  {}, {},
  {}, {},
  {}, {},
  {}, {},
  {}, {},
  {}, {},
  {}, {},
  {}, {},
  {}, {},
  {}, {},
  {}, {},
  {}, {},
  {}, {},
  {}, {},
  {}, {},
  {}, {},
  {}, {},
  {}, {},
  {}, {},
  {}, {},
  {}, {},
  {}, {},
  {}, {},
  {}, {},
  {}, {},
  {}, {},
  {}, {},
  {}, {},
  {}, {},
  {}, {},
  {}, {},
  {}, {},
  {}, {},
  {}, {},
  {}, {},
  {}, {},
  {}, {},
  {}, {},
  {}, {},
  {}, {},
  {}, {},
  {}, {},
  {}, {},
  {}, {},
  {}, {},
  {}, {},
  {}, {},
  {}, {},
  {}, {},
  {}, {},
  {}, {},
  {}, {},
  {}, {},
  {}, {},
  {}, {},
  {}, {},
  {}, {},
  {}, {},
  {}, {},
  {}, {},
  {}, {},
  {}, {},
  {}, {},
  {}, {},
  {}, {},
  {}, {},
  {}, {},
  {}, {},
  {}, {},
  {}, {},
  {}, {},
  {}, {},
  {}, {},
  {}, {},
  {}, {},
  {}, {},
  {}, {},
  {}, {},
  {}, {},
  {}, {},
  {}, {},
  {}, {},
  {}, {},
  {}, {},
  {}, {},
  {}, {},
  {}, {},
  {}, {},
  {}, {},
  {}, {},
  {}, {},
  {}, {},
  {}, {},
  {}, {},
  {}, {},
  {}, {},
  {}, {},
  {}, {},
  {}, {},
  {}, {},
  {}, {},
  {}, {},
  {}, {},
  {}, {},
  {}, {},
  {}, {},
  {}, {},
  {}, {},
  {}, {},
  {}, {},
  {}, {},
  {}, {},
  {}, {},
  {}, {},
  {}, {},
  {}, {},
  {}, {},
  {}, {},
  {}, {},
  {}, {},
  {}, {},
  {}, {},
  {}, {},
  {}, {},
  {}, {},
  {}, {},
  {}, {},
  {}, {},
  {}, {},
  {}, {},
  {}, {},
  {}, {},
  {}, {},
  {}, {},
  {}, {},
  {}, {},
  {}, {},
  {}, {},
  {}, {},
  {}, {},
  {}, {},
  {}, {},
  {}, {},
  {}, {},
  {}, {},
  {}, {},
  {}, {},
  {}, {},
  {}, {},
  {}, {},
  {}, {},
  {}, {},
  {}, {},
  {}, {},
  {}, {},
  {}, {},
  {}, {},
  {}, {},
  {}, {},
  {}, {},
  {}, {},
  {}, {},
  {}, {},
  {}, {},
  {}, {},
  {}, {},
  {}, {},
  {}, {},
  {}, {},
  {}, {},
  {}, {},
  {}, {},
  {}, {},
  {}, {},
  {}, {},
  {}, {},
  {}, {},
  {}, {},
  {}, {},
  {}, {},
  {}, {},
  {}, {},
  {}, {},
  {}, {},
  {}, {},
  {}, {},
  {}, {},
  {}, {},
  {}, {},
  {}, {},
  {}, {},
  {}, {},
  {}, {},
  {}, {},
  {}, {},
  {}, {},
  {}, {},
  {}, {},
  {}, {},
  {}, {},
  {}, {},
  {}, {},
  {}, {},
  {}, {},
  {}, {},
  {}, {},
  {}, {},
  {}, {},
  {}, {},
  {}, {},
  {}, {},
  {}, {},
  {}, {},
  {}, {},
  {}, {},
  {}, {},
  {}, {},
  {}, {},
  {}, {},
  {}, {},
  {}, {},
  {}, {},
  {}, {},
  {}, {},
  {}, {},
  {}, {},
  {}, {},
  {}, {},
  {}, {},
  {}, {},
  {}, {},
  {}, {},
  {}, {},
  {}, {},
  {}, {},
  {}, {},
  {}, {},
  {}, {},
  {}, {},
  {}, {},
  {}, {},
  {}, {},
  {}, {},
  {}, {},
  {}, {},
  {}, {},
  {}, {},
  {}, {},
  {}, {},
  {}, {},
  {}, {},
  {}, {},
  {}, {},
  {}, {},
  {}, {},
  {}, {},
  {}, {},
  {}, {},
  {}, {},
  {}, {},
  {}, {},
  {}, {},
  {}, {},
  {}, {},
  {}, {},
  {}, {},
  {}, {},
  {}, {},
  {}, {},
  {}, {},
  {}, {},
  {}, {},
  {}, {},
  {}, {},
  {}, {},
  {}, {},
  {}, {},
  {}, {},
  {}, {},
  {}, {},
  {}, {},
  {}, {},
  {}, {},
  {}, {},
  {}, {},
  {}, {},
  {}, {},
  {}, {},
  {}, {},
  {}, {},
  {}, {},
  {}, {},
  {}, {},
  {}, {},
  {}, {},
  {}, {},
  {}, {},
  {}, {},
  {}, {},
  {}, {},
  {}, {},
  {}, {},
  {}, {},
  {}, {},
  {}, {},
  {}, {},
  {}, {},
  {}, {}
]);
